; Automatically generated by map2smt

(set-logic HORN)

(declare-datatypes ((listOfInt 0) )
(((conslistOfInt (headlistOfInt Int) (taillistOfInt listOfInt)) (nillistOfInt))))



(declare-fun leq (Int Int Bool) Bool)
(declare-fun len (listOfInt Int) Bool)
(declare-fun append (listOfInt listOfInt listOfInt) Bool)
(declare-fun ff () Bool)

(assert
  (forall ( (A Int) )
    (=>
      (= A 0)
      (len nillistOfInt A)
    )
  )
)
(assert
  (forall ( (A Int) (B listOfInt) (C Int) (D Int) )
    (=>
      (and
        (= C (+ 1 D))
        (len B D)
      )
      (len (conslistOfInt A B) C)
    )
  )
)
(assert
  (forall ( (A listOfInt) )
    (append nillistOfInt A A)
  )
)
(assert
  (forall ( (A Int) (B listOfInt) (C listOfInt) (D listOfInt) )
    (=>
      (append B C D)
      (append (conslistOfInt A B) C (conslistOfInt A D))
    )
  )
)
(assert
  (forall ( (A Int) (B Int) (C listOfInt) (D listOfInt) (E listOfInt) (F listOfInt) )
    (=>
      (and
        (>= (- A B) 1)
        (append C D E)
        (len E B)
        (append D C F)
        (len F A)
      )
      ff
    )
  )
)
(assert
  (forall ( (A Int) (B Int) (C listOfInt) (D listOfInt) (E listOfInt) (F listOfInt) )
    (=>
      (and
        (<= (- A B) (- 1))
        (append C D E)
        (len E B)
        (append D C F)
        (len F A)
      )
      ff
    )
  )
)

(assert (not ff))
(check-sat)
